c THIS FORMULA IS GENERATED BY CNF
c 
c atomics
c C_1_2: 1 
c X_GS <= 37.89_1_s: 2 
c X_PI <= 42.09_1_p: 3 
c C_2_1: 4 
c X_GS <= 37.89_1_p: 5 
c X_PI <= 48.12_1_n: 6 
c X_PI <= 48.12_1_p: 7 
c X_PI <= 48.12_2_p: 8 
c X_PI <= 48.12_1_s: 9 
c X_PI <= 42.09_1_s: 10 
c C_2_2: 11 
c X_PI <= 42.09_2_n: 12 
c X_PI <= 48.12_2_s: 13 
c X_PI <= 42.09_2_s: 14 
c X_PI <= 42.09_2_p: 15 
c X_GS <= 37.89_2_n: 16 
c X_GS <= 37.89_2_s: 17 
c C_1_1: 18 
c X_PI <= 48.12_2_n: 19 
c X_PI <= 42.09_1_n: 20 
c X_GS <= 37.89_1_n: 21 
c X_GS <= 37.89_2_p: 22 
c 
c end atomics
p cnf 22 179
